

[MultiBuffValue]	MultiBuffID	Order	ForceID	ForceValue	ValueType
0	1	0	117	450	1
1	2	0	117	150	1
2	3	0	9	5	2
3	3	1	8	10	2
4	4	0	3	30	1
5	4	1	30	5	2
6	4	2	5	30	1
7	5	0	4	30	1
8	5	1	32	5	2
9	5	2	5	30	1
10	6	0	99	30	2
11	6	1	101	30	2
12	6	2	102	30	2
13	6	3	103	30	2
14	7	0	99	100	2
15	7	1	101	100	2
16	7	2	102	100	2
17	7	3	103	100	2
18	8	0	6	200	1
19	9	0	6	600	1
20	10	0	6	1200	1
21	11	0	6	2400	1
22	12	0	7	100	1
23	13	0	7	300	1
24	14	0	7	600	1
25	15	0	7	1200	1
26	16	0	1	400	1
27	17	0	1	700	1
28	18	0	1	1000	1
29	19	0	1	1500	1
30	20	0	3	15	1
31	21	0	3	30	1
32	22	0	3	45	1
33	23	0	3	75	1
34	24	0	4	15	1
35	25	0	4	30	1
36	26	0	4	45	1
37	27	0	4	75	1
38	28	0	37	6	1
39	29	0	37	8	1
40	30	0	37	12	1
41	31	0	37	20	1
42	32	0	5	15	1
43	33	0	5	30	1
44	34	0	5	45	1
45	35	0	5	75	1
46	36	0	39	20	1
47	37	0	39	30	1
48	38	0	39	50	1
49	39	0	39	100	1
50	40	0	30	4	2
51	41	0	30	7	2
52	42	0	30	10	2
53	43	0	30	15	2
54	44	0	32	4	2
55	45	0	32	7	2
56	46	0	32	10	2
57	47	0	32	15	2
58	48	0	36	30	2
59	49	0	36	50	2
60	50	0	36	70	2
61	51	0	36	90	2
62	52	0	43	10	2
63	53	0	43	20	2
64	54	0	43	30	2
65	55	0	43	50	2
66	56	0	1	350	1
67	57	0	1	400	1
68	58	0	1	450	1
69	59	0	1	500	1
70	60	0	1	550	1
71	61	0	1	600	1
72	62	0	1	650	1
73	63	0	5	35	1
74	64	0	5	40	1
75	65	0	5	45	1
76	66	0	5	50	1
77	67	0	5	55	1
78	68	0	5	60	1
79	69	0	5	65	1
80	70	0	5	70	1
81	71	0	1	35	1
82	72	0	3	5	1
83	73	0	4	5	1
84	74	0	5	5	1
85	75	0	1	45	1
86	76	0	3	6	1
87	77	0	4	6	1
88	78	0	5	6	1
89	79	0	1	60	1
90	80	0	3	8	1
91	81	0	4	8	1
92	82	0	5	8	1
93	83	0	117	2300	1
94	84	0	6	2400	1
95	85	0	7	1200	1
96	86	0	1	600	1
97	87	0	3	75	1
98	88	0	4	75	1
99	89	0	37	12	1
100	90	0	5	60	1
101	91	0	39	100	1
102	92	0	30	15	2
103	93	0	32	15	2
104	94	0	36	90	2
105	95	0	1	70	1
106	95	1	5	10	1
107	96	0	1	200	1
108	96	1	5	30	1
109	97	0	1	350	1
110	97	1	5	52	1
111	98	0	1	500	1
112	98	1	5	75	1
113	99	0	8	3	2
114	99	1	9	5	2
115	100	0	8	6	2
116	100	1	9	10	2
117	101	0	8	9	2
118	101	1	9	15	2
119	102	0	8	12	2
120	102	1	9	20	2
121	103	0	3	15	1
122	103	1	4	15	1
123	104	0	3	45	1
124	104	1	4	45	1
125	105	0	3	75	1
126	105	1	4	75	1
127	106	0	3	150	1
128	106	1	4	150	1
129	107	0	7	100	1
130	107	1	6	150	1
131	108	0	7	200	1
132	108	1	6	300	1
133	109	0	7	300	1
134	109	1	6	600	1
135	110	0	7	500	1
136	110	1	6	1000	1
137	111	0	30	7	2
138	111	1	5	30	1
139	112	0	30	10	2
140	112	1	5	45	1
141	113	0	30	15	2
142	113	1	5	75	1
143	114	0	30	20	2
144	114	1	5	150	1
145	115	0	32	7	2
146	115	1	5	30	1
147	116	0	32	10	2
148	116	1	5	45	1
149	117	0	32	15	2
150	117	1	5	75	1
151	118	0	32	20	2
152	118	1	5	150	1
153	119	0	97	10	2
154	120	0	98	20	2
155	121	0	112	20	2
156	122	1	1	500	1
157	122	2	3	20	1
158	122	3	4	20	1
159	122	4	5	50	1
160	122	5	6	700	1
161	122	6	7	500	1
162	122	7	36	10	2
163	122	8	97	10	2
164	122	9	98	10	2
165	122	10	112	10	2
166	123	0	1	500	1
167	123	1	37	8	1
168	124	0	5	45	1
169	124	1	7	1000	1
170	125	0	3	60	1
171	125	1	30	5	2
172	126	0	4	60	1
173	126	1	32	5	2
174	127	0	3	75	1
175	127	1	8	10	2
176	127	2	30	5	2
177	128	0	4	75	1
178	128	1	8	10	2
179	128	2	32	5	2
180	129	0	1	100	1
181	129	1	2	100	1
182	129	2	3	20	1
183	129	3	4	20	1
184	129	4	5	30	1
185	129	5	6	200	1
186	129	6	7	100	1
187	129	7	30	5	2
188	129	8	32	5	2
189	129	9	37	2	1
190	129	10	9	5	2
191	129	11	8	10	2
192	130	0	1	150	1
193	130	1	3	25	1
194	130	2	4	25	1
195	130	3	5	40	1
196	130	4	6	350	1
197	130	5	7	150	1
198	130	6	30	7	2
199	130	7	32	7	2
200	130	8	37	2	1
201	130	9	9	5	2
202	130	10	8	15	2
203	130	11	12	5	2
204	130	12	34	2	2
205	131	0	1	250	1
206	131	1	3	50	1
207	131	2	4	50	1
208	131	3	5	70	1
209	131	4	6	600	1
210	131	5	7	300	1
211	131	6	30	10	2
212	131	7	32	10	2
213	131	8	37	6	1
214	131	9	9	5	2
215	131	10	8	20	2
216	131	11	12	10	2
217	131	12	34	3	2
218	132	0	5	40	1
219	132	1	113	40	1
220	132	2	114	7	2
221	133	0	8	14	2
222	133	1	9	5	2
